p cnf 315 2719
1 2 3 4 5 6 7 8 9 0
10 11 12 13 14 15 16 17 18 0
19 20 21 22 23 24 25 26 27 0
28 29 30 31 32 33 34 35 36 0
37 38 39 40 41 42 43 44 45 0
46 47 48 49 50 51 52 53 54 0
55 56 57 58 59 60 61 62 63 0
64 65 66 67 68 69 70 71 72 0
73 74 75 76 77 78 79 80 81 0
82 83 84 85 86 87 88 89 90 0
91 92 93 94 95 96 97 98 99 0
100 101 102 103 104 105 106 107 108 0
109 110 111 112 113 114 115 116 117 0
118 119 120 121 122 123 124 125 126 0
127 128 129 130 131 132 133 134 135 0
136 137 138 139 140 141 142 143 144 0
145 146 147 148 149 150 151 152 153 0
154 155 156 157 158 159 160 161 162 0
163 164 165 166 167 168 169 170 171 0
172 173 174 175 176 177 178 179 180 0
181 182 183 184 185 186 187 188 189 0
190 191 192 193 194 195 196 197 198 0
199 200 201 202 203 204 205 206 207 0
208 209 210 211 212 213 214 215 216 0
217 218 219 220 221 222 223 224 225 0
226 227 228 229 230 231 232 233 234 0
235 236 237 238 239 240 241 242 243 0
244 245 246 247 248 249 250 251 252 0
253 254 255 256 257 258 259 260 261 0
262 263 264 265 266 267 268 269 270 0
271 272 273 274 275 276 277 278 279 0
280 281 282 283 284 285 286 287 288 0
289 290 291 292 293 294 295 296 297 0
298 299 300 301 302 303 304 305 306 0
307 308 309 310 311 312 313 314 315 0
-1 -2 0
-1 -3 0
-1 -4 0
-1 -5 0
-1 -6 0
-1 -7 0
-1 -8 0
-1 -9 0
-2 -3 0
-2 -4 0
-2 -5 0
-2 -6 0
-2 -7 0
-2 -8 0
-2 -9 0
-3 -4 0
-3 -5 0
-3 -6 0
-3 -7 0
-3 -8 0
-3 -9 0
-4 -5 0
-4 -6 0
-4 -7 0
-4 -8 0
-4 -9 0
-5 -6 0
-5 -7 0
-5 -8 0
-5 -9 0
-6 -7 0
-6 -8 0
-6 -9 0
-7 -8 0
-7 -9 0
-8 -9 0
-10 -11 0
-10 -12 0
-10 -13 0
-10 -14 0
-10 -15 0
-10 -16 0
-10 -17 0
-10 -18 0
-11 -12 0
-11 -13 0
-11 -14 0
-11 -15 0
-11 -16 0
-11 -17 0
-11 -18 0
-12 -13 0
-12 -14 0
-12 -15 0
-12 -16 0
-12 -17 0
-12 -18 0
-13 -14 0
-13 -15 0
-13 -16 0
-13 -17 0
-13 -18 0
-14 -15 0
-14 -16 0
-14 -17 0
-14 -18 0
-15 -16 0
-15 -17 0
-15 -18 0
-16 -17 0
-16 -18 0
-17 -18 0
-19 -20 0
-19 -21 0
-19 -22 0
-19 -23 0
-19 -24 0
-19 -25 0
-19 -26 0
-19 -27 0
-20 -21 0
-20 -22 0
-20 -23 0
-20 -24 0
-20 -25 0
-20 -26 0
-20 -27 0
-21 -22 0
-21 -23 0
-21 -24 0
-21 -25 0
-21 -26 0
-21 -27 0
-22 -23 0
-22 -24 0
-22 -25 0
-22 -26 0
-22 -27 0
-23 -24 0
-23 -25 0
-23 -26 0
-23 -27 0
-24 -25 0
-24 -26 0
-24 -27 0
-25 -26 0
-25 -27 0
-26 -27 0
-28 -29 0
-28 -30 0
-28 -31 0
-28 -32 0
-28 -33 0
-28 -34 0
-28 -35 0
-28 -36 0
-29 -30 0
-29 -31 0
-29 -32 0
-29 -33 0
-29 -34 0
-29 -35 0
-29 -36 0
-30 -31 0
-30 -32 0
-30 -33 0
-30 -34 0
-30 -35 0
-30 -36 0
-31 -32 0
-31 -33 0
-31 -34 0
-31 -35 0
-31 -36 0
-32 -33 0
-32 -34 0
-32 -35 0
-32 -36 0
-33 -34 0
-33 -35 0
-33 -36 0
-34 -35 0
-34 -36 0
-35 -36 0
-37 -38 0
-37 -39 0
-37 -40 0
-37 -41 0
-37 -42 0
-37 -43 0
-37 -44 0
-37 -45 0
-38 -39 0
-38 -40 0
-38 -41 0
-38 -42 0
-38 -43 0
-38 -44 0
-38 -45 0
-39 -40 0
-39 -41 0
-39 -42 0
-39 -43 0
-39 -44 0
-39 -45 0
-40 -41 0
-40 -42 0
-40 -43 0
-40 -44 0
-40 -45 0
-41 -42 0
-41 -43 0
-41 -44 0
-41 -45 0
-42 -43 0
-42 -44 0
-42 -45 0
-43 -44 0
-43 -45 0
-44 -45 0
-46 -47 0
-46 -48 0
-46 -49 0
-46 -50 0
-46 -51 0
-46 -52 0
-46 -53 0
-46 -54 0
-47 -48 0
-47 -49 0
-47 -50 0
-47 -51 0
-47 -52 0
-47 -53 0
-47 -54 0
-48 -49 0
-48 -50 0
-48 -51 0
-48 -52 0
-48 -53 0
-48 -54 0
-49 -50 0
-49 -51 0
-49 -52 0
-49 -53 0
-49 -54 0
-50 -51 0
-50 -52 0
-50 -53 0
-50 -54 0
-51 -52 0
-51 -53 0
-51 -54 0
-52 -53 0
-52 -54 0
-53 -54 0
-55 -56 0
-55 -57 0
-55 -58 0
-55 -59 0
-55 -60 0
-55 -61 0
-55 -62 0
-55 -63 0
-56 -57 0
-56 -58 0
-56 -59 0
-56 -60 0
-56 -61 0
-56 -62 0
-56 -63 0
-57 -58 0
-57 -59 0
-57 -60 0
-57 -61 0
-57 -62 0
-57 -63 0
-58 -59 0
-58 -60 0
-58 -61 0
-58 -62 0
-58 -63 0
-59 -60 0
-59 -61 0
-59 -62 0
-59 -63 0
-60 -61 0
-60 -62 0
-60 -63 0
-61 -62 0
-61 -63 0
-62 -63 0
-64 -65 0
-64 -66 0
-64 -67 0
-64 -68 0
-64 -69 0
-64 -70 0
-64 -71 0
-64 -72 0
-65 -66 0
-65 -67 0
-65 -68 0
-65 -69 0
-65 -70 0
-65 -71 0
-65 -72 0
-66 -67 0
-66 -68 0
-66 -69 0
-66 -70 0
-66 -71 0
-66 -72 0
-67 -68 0
-67 -69 0
-67 -70 0
-67 -71 0
-67 -72 0
-68 -69 0
-68 -70 0
-68 -71 0
-68 -72 0
-69 -70 0
-69 -71 0
-69 -72 0
-70 -71 0
-70 -72 0
-71 -72 0
-73 -74 0
-73 -75 0
-73 -76 0
-73 -77 0
-73 -78 0
-73 -79 0
-73 -80 0
-73 -81 0
-74 -75 0
-74 -76 0
-74 -77 0
-74 -78 0
-74 -79 0
-74 -80 0
-74 -81 0
-75 -76 0
-75 -77 0
-75 -78 0
-75 -79 0
-75 -80 0
-75 -81 0
-76 -77 0
-76 -78 0
-76 -79 0
-76 -80 0
-76 -81 0
-77 -78 0
-77 -79 0
-77 -80 0
-77 -81 0
-78 -79 0
-78 -80 0
-78 -81 0
-79 -80 0
-79 -81 0
-80 -81 0
-82 -83 0
-82 -84 0
-82 -85 0
-82 -86 0
-82 -87 0
-82 -88 0
-82 -89 0
-82 -90 0
-83 -84 0
-83 -85 0
-83 -86 0
-83 -87 0
-83 -88 0
-83 -89 0
-83 -90 0
-84 -85 0
-84 -86 0
-84 -87 0
-84 -88 0
-84 -89 0
-84 -90 0
-85 -86 0
-85 -87 0
-85 -88 0
-85 -89 0
-85 -90 0
-86 -87 0
-86 -88 0
-86 -89 0
-86 -90 0
-87 -88 0
-87 -89 0
-87 -90 0
-88 -89 0
-88 -90 0
-89 -90 0
-91 -92 0
-91 -93 0
-91 -94 0
-91 -95 0
-91 -96 0
-91 -97 0
-91 -98 0
-91 -99 0
-92 -93 0
-92 -94 0
-92 -95 0
-92 -96 0
-92 -97 0
-92 -98 0
-92 -99 0
-93 -94 0
-93 -95 0
-93 -96 0
-93 -97 0
-93 -98 0
-93 -99 0
-94 -95 0
-94 -96 0
-94 -97 0
-94 -98 0
-94 -99 0
-95 -96 0
-95 -97 0
-95 -98 0
-95 -99 0
-96 -97 0
-96 -98 0
-96 -99 0
-97 -98 0
-97 -99 0
-98 -99 0
-100 -101 0
-100 -102 0
-100 -103 0
-100 -104 0
-100 -105 0
-100 -106 0
-100 -107 0
-100 -108 0
-101 -102 0
-101 -103 0
-101 -104 0
-101 -105 0
-101 -106 0
-101 -107 0
-101 -108 0
-102 -103 0
-102 -104 0
-102 -105 0
-102 -106 0
-102 -107 0
-102 -108 0
-103 -104 0
-103 -105 0
-103 -106 0
-103 -107 0
-103 -108 0
-104 -105 0
-104 -106 0
-104 -107 0
-104 -108 0
-105 -106 0
-105 -107 0
-105 -108 0
-106 -107 0
-106 -108 0
-107 -108 0
-109 -110 0
-109 -111 0
-109 -112 0
-109 -113 0
-109 -114 0
-109 -115 0
-109 -116 0
-109 -117 0
-110 -111 0
-110 -112 0
-110 -113 0
-110 -114 0
-110 -115 0
-110 -116 0
-110 -117 0
-111 -112 0
-111 -113 0
-111 -114 0
-111 -115 0
-111 -116 0
-111 -117 0
-112 -113 0
-112 -114 0
-112 -115 0
-112 -116 0
-112 -117 0
-113 -114 0
-113 -115 0
-113 -116 0
-113 -117 0
-114 -115 0
-114 -116 0
-114 -117 0
-115 -116 0
-115 -117 0
-116 -117 0
-118 -119 0
-118 -120 0
-118 -121 0
-118 -122 0
-118 -123 0
-118 -124 0
-118 -125 0
-118 -126 0
-119 -120 0
-119 -121 0
-119 -122 0
-119 -123 0
-119 -124 0
-119 -125 0
-119 -126 0
-120 -121 0
-120 -122 0
-120 -123 0
-120 -124 0
-120 -125 0
-120 -126 0
-121 -122 0
-121 -123 0
-121 -124 0
-121 -125 0
-121 -126 0
-122 -123 0
-122 -124 0
-122 -125 0
-122 -126 0
-123 -124 0
-123 -125 0
-123 -126 0
-124 -125 0
-124 -126 0
-125 -126 0
-127 -128 0
-127 -129 0
-127 -130 0
-127 -131 0
-127 -132 0
-127 -133 0
-127 -134 0
-127 -135 0
-128 -129 0
-128 -130 0
-128 -131 0
-128 -132 0
-128 -133 0
-128 -134 0
-128 -135 0
-129 -130 0
-129 -131 0
-129 -132 0
-129 -133 0
-129 -134 0
-129 -135 0
-130 -131 0
-130 -132 0
-130 -133 0
-130 -134 0
-130 -135 0
-131 -132 0
-131 -133 0
-131 -134 0
-131 -135 0
-132 -133 0
-132 -134 0
-132 -135 0
-133 -134 0
-133 -135 0
-134 -135 0
-136 -137 0
-136 -138 0
-136 -139 0
-136 -140 0
-136 -141 0
-136 -142 0
-136 -143 0
-136 -144 0
-137 -138 0
-137 -139 0
-137 -140 0
-137 -141 0
-137 -142 0
-137 -143 0
-137 -144 0
-138 -139 0
-138 -140 0
-138 -141 0
-138 -142 0
-138 -143 0
-138 -144 0
-139 -140 0
-139 -141 0
-139 -142 0
-139 -143 0
-139 -144 0
-140 -141 0
-140 -142 0
-140 -143 0
-140 -144 0
-141 -142 0
-141 -143 0
-141 -144 0
-142 -143 0
-142 -144 0
-143 -144 0
-145 -146 0
-145 -147 0
-145 -148 0
-145 -149 0
-145 -150 0
-145 -151 0
-145 -152 0
-145 -153 0
-146 -147 0
-146 -148 0
-146 -149 0
-146 -150 0
-146 -151 0
-146 -152 0
-146 -153 0
-147 -148 0
-147 -149 0
-147 -150 0
-147 -151 0
-147 -152 0
-147 -153 0
-148 -149 0
-148 -150 0
-148 -151 0
-148 -152 0
-148 -153 0
-149 -150 0
-149 -151 0
-149 -152 0
-149 -153 0
-150 -151 0
-150 -152 0
-150 -153 0
-151 -152 0
-151 -153 0
-152 -153 0
-154 -155 0
-154 -156 0
-154 -157 0
-154 -158 0
-154 -159 0
-154 -160 0
-154 -161 0
-154 -162 0
-155 -156 0
-155 -157 0
-155 -158 0
-155 -159 0
-155 -160 0
-155 -161 0
-155 -162 0
-156 -157 0
-156 -158 0
-156 -159 0
-156 -160 0
-156 -161 0
-156 -162 0
-157 -158 0
-157 -159 0
-157 -160 0
-157 -161 0
-157 -162 0
-158 -159 0
-158 -160 0
-158 -161 0
-158 -162 0
-159 -160 0
-159 -161 0
-159 -162 0
-160 -161 0
-160 -162 0
-161 -162 0
-163 -164 0
-163 -165 0
-163 -166 0
-163 -167 0
-163 -168 0
-163 -169 0
-163 -170 0
-163 -171 0
-164 -165 0
-164 -166 0
-164 -167 0
-164 -168 0
-164 -169 0
-164 -170 0
-164 -171 0
-165 -166 0
-165 -167 0
-165 -168 0
-165 -169 0
-165 -170 0
-165 -171 0
-166 -167 0
-166 -168 0
-166 -169 0
-166 -170 0
-166 -171 0
-167 -168 0
-167 -169 0
-167 -170 0
-167 -171 0
-168 -169 0
-168 -170 0
-168 -171 0
-169 -170 0
-169 -171 0
-170 -171 0
-172 -173 0
-172 -174 0
-172 -175 0
-172 -176 0
-172 -177 0
-172 -178 0
-172 -179 0
-172 -180 0
-173 -174 0
-173 -175 0
-173 -176 0
-173 -177 0
-173 -178 0
-173 -179 0
-173 -180 0
-174 -175 0
-174 -176 0
-174 -177 0
-174 -178 0
-174 -179 0
-174 -180 0
-175 -176 0
-175 -177 0
-175 -178 0
-175 -179 0
-175 -180 0
-176 -177 0
-176 -178 0
-176 -179 0
-176 -180 0
-177 -178 0
-177 -179 0
-177 -180 0
-178 -179 0
-178 -180 0
-179 -180 0
-181 -182 0
-181 -183 0
-181 -184 0
-181 -185 0
-181 -186 0
-181 -187 0
-181 -188 0
-181 -189 0
-182 -183 0
-182 -184 0
-182 -185 0
-182 -186 0
-182 -187 0
-182 -188 0
-182 -189 0
-183 -184 0
-183 -185 0
-183 -186 0
-183 -187 0
-183 -188 0
-183 -189 0
-184 -185 0
-184 -186 0
-184 -187 0
-184 -188 0
-184 -189 0
-185 -186 0
-185 -187 0
-185 -188 0
-185 -189 0
-186 -187 0
-186 -188 0
-186 -189 0
-187 -188 0
-187 -189 0
-188 -189 0
-190 -191 0
-190 -192 0
-190 -193 0
-190 -194 0
-190 -195 0
-190 -196 0
-190 -197 0
-190 -198 0
-191 -192 0
-191 -193 0
-191 -194 0
-191 -195 0
-191 -196 0
-191 -197 0
-191 -198 0
-192 -193 0
-192 -194 0
-192 -195 0
-192 -196 0
-192 -197 0
-192 -198 0
-193 -194 0
-193 -195 0
-193 -196 0
-193 -197 0
-193 -198 0
-194 -195 0
-194 -196 0
-194 -197 0
-194 -198 0
-195 -196 0
-195 -197 0
-195 -198 0
-196 -197 0
-196 -198 0
-197 -198 0
-199 -200 0
-199 -201 0
-199 -202 0
-199 -203 0
-199 -204 0
-199 -205 0
-199 -206 0
-199 -207 0
-200 -201 0
-200 -202 0
-200 -203 0
-200 -204 0
-200 -205 0
-200 -206 0
-200 -207 0
-201 -202 0
-201 -203 0
-201 -204 0
-201 -205 0
-201 -206 0
-201 -207 0
-202 -203 0
-202 -204 0
-202 -205 0
-202 -206 0
-202 -207 0
-203 -204 0
-203 -205 0
-203 -206 0
-203 -207 0
-204 -205 0
-204 -206 0
-204 -207 0
-205 -206 0
-205 -207 0
-206 -207 0
-208 -209 0
-208 -210 0
-208 -211 0
-208 -212 0
-208 -213 0
-208 -214 0
-208 -215 0
-208 -216 0
-209 -210 0
-209 -211 0
-209 -212 0
-209 -213 0
-209 -214 0
-209 -215 0
-209 -216 0
-210 -211 0
-210 -212 0
-210 -213 0
-210 -214 0
-210 -215 0
-210 -216 0
-211 -212 0
-211 -213 0
-211 -214 0
-211 -215 0
-211 -216 0
-212 -213 0
-212 -214 0
-212 -215 0
-212 -216 0
-213 -214 0
-213 -215 0
-213 -216 0
-214 -215 0
-214 -216 0
-215 -216 0
-217 -218 0
-217 -219 0
-217 -220 0
-217 -221 0
-217 -222 0
-217 -223 0
-217 -224 0
-217 -225 0
-218 -219 0
-218 -220 0
-218 -221 0
-218 -222 0
-218 -223 0
-218 -224 0
-218 -225 0
-219 -220 0
-219 -221 0
-219 -222 0
-219 -223 0
-219 -224 0
-219 -225 0
-220 -221 0
-220 -222 0
-220 -223 0
-220 -224 0
-220 -225 0
-221 -222 0
-221 -223 0
-221 -224 0
-221 -225 0
-222 -223 0
-222 -224 0
-222 -225 0
-223 -224 0
-223 -225 0
-224 -225 0
-226 -227 0
-226 -228 0
-226 -229 0
-226 -230 0
-226 -231 0
-226 -232 0
-226 -233 0
-226 -234 0
-227 -228 0
-227 -229 0
-227 -230 0
-227 -231 0
-227 -232 0
-227 -233 0
-227 -234 0
-228 -229 0
-228 -230 0
-228 -231 0
-228 -232 0
-228 -233 0
-228 -234 0
-229 -230 0
-229 -231 0
-229 -232 0
-229 -233 0
-229 -234 0
-230 -231 0
-230 -232 0
-230 -233 0
-230 -234 0
-231 -232 0
-231 -233 0
-231 -234 0
-232 -233 0
-232 -234 0
-233 -234 0
-235 -236 0
-235 -237 0
-235 -238 0
-235 -239 0
-235 -240 0
-235 -241 0
-235 -242 0
-235 -243 0
-236 -237 0
-236 -238 0
-236 -239 0
-236 -240 0
-236 -241 0
-236 -242 0
-236 -243 0
-237 -238 0
-237 -239 0
-237 -240 0
-237 -241 0
-237 -242 0
-237 -243 0
-238 -239 0
-238 -240 0
-238 -241 0
-238 -242 0
-238 -243 0
-239 -240 0
-239 -241 0
-239 -242 0
-239 -243 0
-240 -241 0
-240 -242 0
-240 -243 0
-241 -242 0
-241 -243 0
-242 -243 0
-244 -245 0
-244 -246 0
-244 -247 0
-244 -248 0
-244 -249 0
-244 -250 0
-244 -251 0
-244 -252 0
-245 -246 0
-245 -247 0
-245 -248 0
-245 -249 0
-245 -250 0
-245 -251 0
-245 -252 0
-246 -247 0
-246 -248 0
-246 -249 0
-246 -250 0
-246 -251 0
-246 -252 0
-247 -248 0
-247 -249 0
-247 -250 0
-247 -251 0
-247 -252 0
-248 -249 0
-248 -250 0
-248 -251 0
-248 -252 0
-249 -250 0
-249 -251 0
-249 -252 0
-250 -251 0
-250 -252 0
-251 -252 0
-253 -254 0
-253 -255 0
-253 -256 0
-253 -257 0
-253 -258 0
-253 -259 0
-253 -260 0
-253 -261 0
-254 -255 0
-254 -256 0
-254 -257 0
-254 -258 0
-254 -259 0
-254 -260 0
-254 -261 0
-255 -256 0
-255 -257 0
-255 -258 0
-255 -259 0
-255 -260 0
-255 -261 0
-256 -257 0
-256 -258 0
-256 -259 0
-256 -260 0
-256 -261 0
-257 -258 0
-257 -259 0
-257 -260 0
-257 -261 0
-258 -259 0
-258 -260 0
-258 -261 0
-259 -260 0
-259 -261 0
-260 -261 0
-262 -263 0
-262 -264 0
-262 -265 0
-262 -266 0
-262 -267 0
-262 -268 0
-262 -269 0
-262 -270 0
-263 -264 0
-263 -265 0
-263 -266 0
-263 -267 0
-263 -268 0
-263 -269 0
-263 -270 0
-264 -265 0
-264 -266 0
-264 -267 0
-264 -268 0
-264 -269 0
-264 -270 0
-265 -266 0
-265 -267 0
-265 -268 0
-265 -269 0
-265 -270 0
-266 -267 0
-266 -268 0
-266 -269 0
-266 -270 0
-267 -268 0
-267 -269 0
-267 -270 0
-268 -269 0
-268 -270 0
-269 -270 0
-271 -272 0
-271 -273 0
-271 -274 0
-271 -275 0
-271 -276 0
-271 -277 0
-271 -278 0
-271 -279 0
-272 -273 0
-272 -274 0
-272 -275 0
-272 -276 0
-272 -277 0
-272 -278 0
-272 -279 0
-273 -274 0
-273 -275 0
-273 -276 0
-273 -277 0
-273 -278 0
-273 -279 0
-274 -275 0
-274 -276 0
-274 -277 0
-274 -278 0
-274 -279 0
-275 -276 0
-275 -277 0
-275 -278 0
-275 -279 0
-276 -277 0
-276 -278 0
-276 -279 0
-277 -278 0
-277 -279 0
-278 -279 0
-280 -281 0
-280 -282 0
-280 -283 0
-280 -284 0
-280 -285 0
-280 -286 0
-280 -287 0
-280 -288 0
-281 -282 0
-281 -283 0
-281 -284 0
-281 -285 0
-281 -286 0
-281 -287 0
-281 -288 0
-282 -283 0
-282 -284 0
-282 -285 0
-282 -286 0
-282 -287 0
-282 -288 0
-283 -284 0
-283 -285 0
-283 -286 0
-283 -287 0
-283 -288 0
-284 -285 0
-284 -286 0
-284 -287 0
-284 -288 0
-285 -286 0
-285 -287 0
-285 -288 0
-286 -287 0
-286 -288 0
-287 -288 0
-289 -290 0
-289 -291 0
-289 -292 0
-289 -293 0
-289 -294 0
-289 -295 0
-289 -296 0
-289 -297 0
-290 -291 0
-290 -292 0
-290 -293 0
-290 -294 0
-290 -295 0
-290 -296 0
-290 -297 0
-291 -292 0
-291 -293 0
-291 -294 0
-291 -295 0
-291 -296 0
-291 -297 0
-292 -293 0
-292 -294 0
-292 -295 0
-292 -296 0
-292 -297 0
-293 -294 0
-293 -295 0
-293 -296 0
-293 -297 0
-294 -295 0
-294 -296 0
-294 -297 0
-295 -296 0
-295 -297 0
-296 -297 0
-298 -299 0
-298 -300 0
-298 -301 0
-298 -302 0
-298 -303 0
-298 -304 0
-298 -305 0
-298 -306 0
-299 -300 0
-299 -301 0
-299 -302 0
-299 -303 0
-299 -304 0
-299 -305 0
-299 -306 0
-300 -301 0
-300 -302 0
-300 -303 0
-300 -304 0
-300 -305 0
-300 -306 0
-301 -302 0
-301 -303 0
-301 -304 0
-301 -305 0
-301 -306 0
-302 -303 0
-302 -304 0
-302 -305 0
-302 -306 0
-303 -304 0
-303 -305 0
-303 -306 0
-304 -305 0
-304 -306 0
-305 -306 0
-307 -308 0
-307 -309 0
-307 -310 0
-307 -311 0
-307 -312 0
-307 -313 0
-307 -314 0
-307 -315 0
-308 -309 0
-308 -310 0
-308 -311 0
-308 -312 0
-308 -313 0
-308 -314 0
-308 -315 0
-309 -310 0
-309 -311 0
-309 -312 0
-309 -313 0
-309 -314 0
-309 -315 0
-310 -311 0
-310 -312 0
-310 -313 0
-310 -314 0
-310 -315 0
-311 -312 0
-311 -313 0
-311 -314 0
-311 -315 0
-312 -313 0
-312 -314 0
-312 -315 0
-313 -314 0
-313 -315 0
-314 -315 0
-5 -16 0
-9 -13 0
-4 -13 0
-2 -14 0
-3 -15 0
-5 -11 0
-7 -10 0
-3 -17 0
-9 -44 0
-8 -37 0
-3 -39 0
-1 -38 0
-2 -44 0
-7 -39 0
-9 -38 0
-5 -44 0
-8 -54 0
-1 -47 0
-2 -49 0
-1 -51 0
-6 -53 0
-2 -46 0
-6 -51 0
-6 -52 0
-8 -70 0
-2 -65 0
-5 -64 0
-1 -72 0
-7 -72 0
-5 -69 0
-7 -67 0
-9 -72 0
-8 -119 0
-2 -121 0
-8 -123 0
-7 -126 0
-2 -123 0
-4 -120 0
-2 -126 0
-7 -124 0
-6 -155 0
-9 -154 0
-2 -155 0
-2 -160 0
-2 -159 0
-1 -161 0
-2 -162 0
-4 -158 0
-4 -174 0
-6 -174 0
-1 -180 0
-9 -172 0
-2 -176 0
-1 -176 0
-2 -179 0
-7 -179 0
-1 -182 0
-3 -189 0
-7 -185 0
-6 -188 0
-9 -187 0
-1 -183 0
-3 -181 0
-8 -181 0
-2 -200 0
-3 -199 0
-3 -207 0
-9 -206 0
-3 -206 0
-2 -205 0
-4 -206 0
-1 -206 0
-6 -230 0
-3 -230 0
-2 -232 0
-5 -228 0
-6 -233 0
-2 -227 0
-7 -230 0
-8 -228 0
-5 -244 0
-1 -245 0
-3 -250 0
-4 -252 0
-1 -244 0
-2 -251 0
-4 -247 0
-6 -250 0
-7 -265 0
-7 -264 0
-6 -267 0
-5 -264 0
-6 -262 0
-3 -263 0
-6 -265 0
-1 -268 0
-7 -282 0
-5 -281 0
-6 -287 0
-3 -283 0
-7 -288 0
-8 -288 0
-4 -285 0
-3 -282 0
-7 -300 0
-6 -298 0
-2 -301 0
-3 -302 0
-9 -305 0
-6 -303 0
-7 -306 0
-7 -303 0
-13 -19 0
-13 -21 0
-11 -25 0
-11 -21 0
-13 -27 0
-10 -27 0
-10 -23 0
-13 -26 0
-17 -72 0
-12 -66 0
-10 -64 0
-14 -72 0
-10 -72 0
-12 -64 0
-16 -64 0
-18 -66 0
-18 -132 0
-12 -131 0
-13 -130 0
-18 -130 0
-12 -130 0
-13 -132 0
-17 -129 0
-15 -130 0
-14 -150 0
-11 -147 0
-18 -147 0
-12 -151 0
-18 -149 0
-13 -147 0
-11 -152 0
-17 -148 0
-15 -162 0
-16 -157 0
-12 -155 0
-13 -158 0
-10 -158 0
-12 -159 0
-14 -158 0
-17 -161 0
-10 -209 0
-16 -216 0
-13 -209 0
-10 -210 0
-14 -209 0
-17 -209 0
-11 -215 0
-17 -214 0
-10 -234 0
-10 -230 0
-10 -229 0
-18 -233 0
-18 -226 0
-10 -228 0
-14 -230 0
-11 -231 0
-18 -239 0
-11 -237 0
-17 -238 0
-13 -238 0
-13 -236 0
-15 -236 0
-18 -238 0
-18 -240 0
-11 -291 0
-13 -294 0
-12 -294 0
-16 -290 0
-12 -296 0
-10 -296 0
-16 -294 0
-12 -293 0
-26 -33 0
-27 -34 0
-21 -28 0
-25 -29 0
-22 -31 0
-22 -29 0
-22 -35 0
-19 -28 0
-26 -65 0
-27 -64 0
-23 -69 0
-19 -67 0
-22 -67 0
-24 -70 0
-27 -70 0
-21 -66 0
-26 -123 0
-27 -119 0
-22 -124 0
-19 -119 0
-26 -125 0
-25 -118 0
-24 -124 0
-22 -121 0
-20 -131 0
-22 -134 0
-19 -128 0
-25 -135 0
-23 -133 0
-20 -135 0
-24 -127 0
-20 -134 0
-25 -136 0
-19 -140 0
-21 -140 0
-24 -142 0
-22 -139 0
-27 -139 0
-24 -144 0
-21 -138 0
-19 -148 0
-24 -148 0
-19 -152 0
-25 -149 0
-27 -151 0
-21 -146 0
-22 -148 0
-27 -147 0
-22 -188 0
-25 -187 0
-19 -182 0
-26 -185 0
-19 -186 0
-19 -184 0
-25 -186 0
-20 -187 0
-27 -271 0
-21 -272 0
-22 -276 0
-20 -274 0
-24 -274 0
-26 -276 0
-21 -279 0
-19 -276 0
-28 -147 0
-33 -147 0
-36 -145 0
-32 -147 0
-29 -148 0
-31 -148 0
-36 -146 0
-31 -150 0
-30 -180 0
-30 -178 0
-33 -177 0
-32 -180 0
-36 -175 0
-34 -172 0
-35 -173 0
-34 -178 0
-34 -207 0
-33 -201 0
-35 -206 0
-31 -206 0
-31 -205 0
-33 -202 0
-28 -199 0
-34 -200 0
-30 -237 0
-35 -239 0
-31 -235 0
-33 -235 0
-36 -239 0
-30 -236 0
-31 -237 0
-31 -239 0
-30 -252 0
-29 -245 0
-28 -251 0
-32 -249 0
-31 -252 0
-35 -246 0
-36 -249 0
-30 -246 0
-28 -264 0
-34 -262 0
-30 -265 0
-32 -268 0
-31 -262 0
-28 -265 0
-34 -264 0
-28 -266 0
-34 -283 0
-34 -282 0
-32 -286 0
-34 -286 0
-34 -280 0
-32 -280 0
-36 -281 0
-34 -287 0
-38 -73 0
-37 -76 0
-40 -77 0
-40 -80 0
-40 -78 0
-42 -79 0
-45 -81 0
-43 -81 0
-42 -116 0
-43 -115 0
-44 -111 0
-37 -112 0
-37 -110 0
-43 -114 0
-42 -113 0
-42 -114 0
-45 -128 0
-43 -130 0
-45 -133 0
-45 -130 0
-39 -127 0
-37 -135 0
-42 -129 0
-38 -132 0
-44 -141 0
-40 -142 0
-45 -136 0
-44 -143 0
-39 -144 0
-42 -142 0
-37 -141 0
-42 -139 0
-42 -145 0
-43 -153 0
-40 -146 0
-37 -148 0
-40 -150 0
-41 -145 0
-42 -148 0
-37 -151 0
-38 -210 0
-44 -212 0
-44 -215 0
-39 -210 0
-45 -214 0
-41 -215 0
-39 -216 0
-42 -214 0
-45 -229 0
-44 -230 0
-43 -229 0
-38 -226 0
-39 -226 0
-45 -231 0
-37 -231 0
-38 -229 0
-42 -279 0
-44 -279 0
-42 -274 0
-42 -277 0
-38 -273 0
-38 -272 0
-43 -275 0
-39 -273 0
-54 -167 0
-47 -169 0
-50 -165 0
-46 -168 0
-51 -171 0
-50 -171 0
-50 -164 0
-46 -167 0
-49 -195 0
-49 -192 0
-46 -198 0
-53 -192 0
-54 -198 0
-54 -193 0
-53 -198 0
-48 -190 0
-51 -229 0
-48 -230 0
-50 -228 0
-54 -230 0
-46 -228 0
-47 -226 0
-46 -227 0
-52 -226 0
-50 -240 0
-46 -240 0
-54 -242 0
-47 -239 0
-50 -237 0
-47 -238 0
-52 -237 0
-54 -243 0
-48 -274 0
-53 -279 0
-51 -279 0
-48 -277 0
-54 -271 0
-50 -279 0
-52 -278 0
-47 -275 0
-57 -75 0
-63 -80 0
-63 -78 0
-61 -73 0
-58 -78 0
-60 -78 0
-61 -76 0
-61 -79 0
-60 -84 0
-63 -86 0
-55 -82 0
-57 -86 0
-58 -83 0
-61 -87 0
-58 -89 0
-56 -90 0
-59 -114 0
-61 -114 0
-60 -116 0
-55 -110 0
-63 -112 0
-57 -117 0
-63 -114 0
-63 -117 0
-57 -132 0
-55 -132 0
-58 -127 0
-55 -127 0
-60 -129 0
-60 -133 0
-60 -131 0
-62 -131 0
-58 -145 0
-56 -146 0
-61 -151 0
-57 -146 0
-60 -150 0
-56 -147 0
-63 -146 0
-57 -151 0
-63 -228 0
-58 -226 0
-60 -231 0
-58 -233 0
-56 -231 0
-60 -226 0
-63 -227 0
-61 -230 0
-59 -245 0
-59 -244 0
-56 -250 0
-62 -248 0
-60 -247 0
-60 -246 0
-63 -245 0
-60 -244 0
-58 -254 0
-55 -257 0
-60 -259 0
-55 -254 0
-59 -261 0
-61 -261 0
-61 -256 0
-60 -255 0
-57 -270 0
-56 -265 0
-63 -263 0
-57 -269 0
-63 -266 0
-60 -269 0
-62 -263 0
-61 -268 0
-60 -313 0
-60 -314 0
-61 -315 0
-58 -308 0
-63 -307 0
-59 -311 0
-61 -312 0
-55 -311 0
-67 -110 0
-71 -109 0
-68 -114 0
-70 -110 0
-72 -116 0
-64 -110 0
-67 -117 0
-71 -115 0
-72 -187 0
-71 -185 0
-69 -186 0
-70 -189 0
-70 -187 0
-70 -188 0
-70 -182 0
-69 -181 0
-70 -219 0
-68 -218 0
-67 -222 0
-71 -225 0
-72 -224 0
-72 -222 0
-71 -220 0
-67 -218 0
-65 -254 0
-70 -258 0
-71 -259 0
-71 -261 0
-69 -256 0
-65 -255 0
-69 -255 0
-71 -253 0
-65 -282 0
-68 -288 0
-64 -280 0
-68 -284 0
-72 -283 0
-72 -285 0
-70 -281 0
-71 -283 0
-65 -290 0
-70 -290 0
-68 -290 0
-71 -290 0
-65 -297 0
-68 -297 0
-71 -297 0
-67 -292 0
-65 -304 0
-65 -299 0
-71 -301 0
-67 -304 0
-69 -302 0
-65 -305 0
-68 -306 0
-67 -299 0
-77 -90 0
-73 -86 0
-75 -82 0
-79 -89 0
-73 -90 0
-76 -89 0
-75 -84 0
-78 -82 0
-78 -104 0
-79 -103 0
-78 -107 0
-73 -105 0
-81 -103 0
-80 -108 0
-78 -105 0
-73 -107 0
-79 -111 0
-80 -111 0
-78 -116 0
-75 -116 0
-77 -115 0
-76 -115 0
-75 -114 0
-79 -110 0
-79 -120 0
-73 -121 0
-74 -125 0
-76 -124 0
-76 -123 0
-81 -122 0
-75 -119 0
-77 -120 0
-80 -146 0
-78 -151 0
-73 -147 0
-77 -145 0
-80 -148 0
-76 -148 0
-79 -151 0
-74 -149 0
-73 -165 0
-81 -165 0
-76 -164 0
-74 -170 0
-75 -171 0
-77 -169 0
-75 -166 0
-76 -170 0
-75 -175 0
-75 -172 0
-79 -179 0
-77 -173 0
-80 -178 0
-79 -177 0
-74 -178 0
-78 -174 0
-80 -202 0
-79 -205 0
-77 -201 0
-75 -200 0
-81 -204 0
-81 -202 0
-75 -204 0
-73 -202 0
-81 -221 0
-75 -224 0
-77 -222 0
-77 -225 0
-74 -223 0
-78 -222 0
-76 -224 0
-74 -222 0
-78 -227 0
-81 -226 0
-78 -229 0
-78 -231 0
-77 -230 0
-80 -230 0
-75 -228 0
-73 -230 0
-74 -277 0
-75 -279 0
-78 -278 0
-79 -274 0
-78 -279 0
-76 -273 0
-78 -274 0
-76 -276 0
-75 -283 0
-78 -280 0
-77 -287 0
-76 -283 0
-77 -285 0
-75 -282 0
-79 -284 0
-81 -280 0
-75 -292 0
-76 -297 0
-78 -297 0
-76 -291 0
-76 -296 0
-78 -290 0
-77 -293 0
-75 -290 0
-74 -305 0
-75 -298 0
-74 -306 0
-80 -300 0
-81 -302 0
-79 -300 0
-77 -298 0
-75 -301 0
-84 -111 0
-87 -116 0
-86 -112 0
-88 -115 0
-84 -112 0
-86 -110 0
-89 -112 0
-89 -115 0
-88 -158 0
-83 -155 0
-84 -158 0
-84 -154 0
-82 -161 0
-82 -154 0
-89 -160 0
-89 -154 0
-84 -207 0
-89 -206 0
-90 -199 0
-86 -205 0
-88 -207 0
-89 -200 0
-84 -203 0
-88 -206 0
-86 -213 0
-83 -216 0
-87 -211 0
-84 -216 0
-87 -208 0
-85 -216 0
-84 -211 0
-89 -213 0
-87 -225 0
-84 -218 0
-86 -218 0
-90 -218 0
-84 -225 0
-82 -222 0
-83 -217 0
-86 -222 0
-87 -273 0
-82 -272 0
-85 -271 0
-82 -279 0
-89 -271 0
-90 -272 0
-88 -278 0
-86 -271 0
-96 -117 0
-99 -116 0
-98 -112 0
-91 -111 0
-92 -116 0
-99 -111 0
-96 -109 0
-94 -111 0
-98 -120 0
-97 -121 0
-91 -122 0
-95 -125 0
-96 -126 0
-92 -121 0
-98 -122 0
-99 -124 0
-95 -211 0
-91 -215 0
-99 -210 0
-98 -212 0
-97 -213 0
-94 -211 0
-99 -215 0
-99 -216 0
-97 -218 0
-91 -225 0
-92 -222 0
-97 -224 0
-98 -217 0
-95 -224 0
-96 -221 0
-99 -219 0
-93 -251 0
-95 -249 0
-99 -244 0
-98 -249 0
-92 -248 0
-99 -249 0
-97 -250 0
-96 -247 0
-99 -266 0
-97 -265 0
-96 -265 0
-91 -270 0
-98 -263 0
-98 -266 0
-93 -263 0
-91 -268 0
-106 -213 0
-100 -213 0
-106 -212 0
-101 -212 0
-101 -209 0
-103 -215 0
-107 -211 0
-103 -214 0
-100 -222 0
-104 -223 0
-107 -221 0
-101 -223 0
-104 -221 0
-105 -225 0
-108 -218 0
-108 -223 0
-100 -230 0
-100 -231 0
-100 -226 0
-103 -231 0
-106 -231 0
-107 -234 0
-102 -231 0
-100 -232 0
-102 -245 0
-105 -246 0
-104 -244 0
-107 -249 0
-107 -250 0
-100 -245 0
-108 -249 0
-106 -249 0
-105 -277 0
-103 -274 0
-105 -273 0
-105 -275 0
-105 -271 0
-106 -278 0
-100 -275 0
-102 -275 0
-108 -295 0
-101 -294 0
-104 -294 0
-103 -295 0
-107 -295 0
-104 -295 0
-105 -296 0
-105 -294 0
-111 -135 0
-110 -131 0
-114 -133 0
-115 -133 0
-109 -134 0
-116 -127 0
-115 -127 0
-110 -133 0
-115 -153 0
-113 -153 0
-117 -145 0
-115 -147 0
-116 -153 0
-113 -152 0
-111 -149 0
-109 -148 0
-111 -154 0
-113 -156 0
-109 -154 0
-117 -157 0
-110 -155 0
-113 -154 0
-109 -157 0
-110 -156 0
-110 -168 0
-117 -163 0
-114 -168 0
-117 -168 0
-112 -167 0
-113 -168 0
-111 -168 0
-110 -165 0
-114 -194 0
-110 -194 0
-111 -195 0
-114 -196 0
-112 -198 0
-113 -190 0
-110 -193 0
-117 -192 0
-117 -205 0
-117 -201 0
-115 -205 0
-111 -207 0
-114 -202 0
-109 -206 0
-114 -204 0
-117 -207 0
-115 -211 0
-117 -212 0
-109 -210 0
-109 -208 0
-115 -209 0
-113 -208 0
-116 -215 0
-117 -209 0
-113 -224 0
-115 -217 0
-112 -222 0
-109 -217 0
-111 -220 0
-117 -222 0
-116 -224 0
-112 -225 0
-116 -256 0
-113 -253 0
-116 -253 0
-114 -259 0
-114 -255 0
-109 -258 0
-115 -256 0
-117 -255 0
-109 -262 0
-114 -265 0
-111 -270 0
-111 -266 0
-115 -266 0
-117 -265 0
-109 -268 0
-115 -268 0
-111 -303 0
-114 -306 0
-110 -299 0
-115 -300 0
-114 -301 0
-115 -298 0
-113 -306 0
-116 -298 0
-125 -155 0
-124 -161 0
-125 -157 0
-123 -157 0
-124 -160 0
-120 -156 0
-121 -154 0
-119 -158 0
-120 -187 0
-118 -189 0
-120 -185 0
-124 -188 0
-125 -187 0
-121 -181 0
-123 -186 0
-124 -184 0
-119 -195 0
-120 -190 0
-118 -190 0
-120 -191 0
-126 -196 0
-118 -196 0
-123 -194 0
-124 -194 0
-120 -224 0
-121 -224 0
-122 -225 0
-121 -219 0
-119 -220 0
-120 -221 0
-126 -225 0
-124 -222 0
-123 -250 0
-124 -247 0
-122 -248 0
-123 -249 0
-121 -244 0
-124 -248 0
-125 -250 0
-119 -244 0
-119 -267 0
-119 -270 0
-121 -270 0
-119 -268 0
-119 -263 0
-121 -266 0
-118 -270 0
-120 -263 0
-120 -275 0
-120 -276 0
-123 -272 0
-123 -276 0
-118 -274 0
-121 -275 0
-125 -273 0
-126 -275 0
-126 -285 0
-122 -282 0
-122 -286 0
-119 -285 0
-124 -286 0
-120 -282 0
-123 -286 0
-120 -286 0
-118 -294 0
-126 -290 0
-125 -296 0
-120 -297 0
-121 -290 0
-119 -292 0
-120 -295 0
-121 -291 0
-130 -147 0
-131 -148 0
-134 -148 0
-131 -146 0
-134 -145 0
-131 -145 0
-129 -147 0
-134 -153 0
-135 -173 0
-130 -178 0
-134 -174 0
-132 -173 0
-135 -172 0
-132 -172 0
-134 -180 0
-129 -180 0
-134 -191 0
-131 -196 0
-135 -190 0
-130 -194 0
-130 -191 0
-134 -198 0
-132 -195 0
-127 -197 0
-142 -147 0
-143 -145 0
-140 -151 0
-144 -148 0
-142 -150 0
-136 -145 0
-137 -150 0
-141 -153 0
-139 -176 0
-141 -172 0
-138 -177 0
-141 -180 0
-143 -176 0
-138 -176 0
-139 -174 0
-137 -177 0
-139 -183 0
-142 -182 0
-141 -184 0
-139 -181 0
-137 -184 0
-144 -189 0
-141 -185 0
-138 -184 0
-143 -218 0
-140 -217 0
-143 -223 0
-144 -222 0
-140 -218 0
-139 -222 0
-137 -220 0
-144 -217 0
-137 -286 0
-142 -287 0
-140 -281 0
-138 -281 0
-141 -281 0
-139 -281 0
-140 -286 0
-144 -280 0
-136 -314 0
-143 -314 0
-138 -309 0
-137 -310 0
-140 -311 0
-137 -309 0
-142 -308 0
-143 -311 0
-146 -180 0
-149 -172 0
-150 -176 0
-145 -173 0
-150 -179 0
-153 -174 0
-146 -174 0
-148 -173 0
-150 -210 0
-147 -212 0
-146 -208 0
-153 -216 0
-152 -209 0
-153 -210 0
-145 -216 0
-148 -214 0
-147 -225 0
-153 -224 0
-153 -225 0
-151 -224 0
-152 -220 0
-149 -222 0
-147 -219 0
-150 -220 0
-148 -254 0
-150 -255 0
-150 -259 0
-147 -256 0
-149 -261 0
-151 -258 0
-151 -253 0
-146 -260 0
-159 -187 0
-160 -185 0
-154 -188 0
-159 -182 0
-156 -189 0
-157 -188 0
-160 -181 0
-156 -184 0
-157 -195 0
-161 -192 0
-160 -197 0
-162 -195 0
-160 -196 0
-162 -194 0
-161 -190 0
-155 -195 0
-155 -201 0
-159 -200 0
-156 -199 0
-154 -202 0
-159 -206 0
-161 -207 0
-162 -199 0
-158 -206 0
-161 -227 0
-162 -226 0
-154 -232 0
-155 -232 0
-157 -229 0
-156 -232 0
-155 -233 0
-155 -229 0
-164 -199 0
-166 -205 0
-168 -203 0
-163 -203 0
-165 -206 0
-168 -206 0
-168 -202 0
-168 -205 0
-163 -272 0
-169 -279 0
-164 -274 0
-168 -272 0
-165 -276 0
-164 -271 0
-164 -275 0
-168 -279 0
-174 -186 0
-174 -181 0
-173 -184 0
-180 -188 0
-172 -183 0
-173 -181 0
-178 -187 0
-178 -189 0
-180 -241 0
-178 -237 0
-173 -238 0
-180 -239 0
-173 -236 0
-179 -236 0
-179 -235 0
-172 -239 0
-180 -251 0
-173 -251 0
-172 -250 0
-178 -249 0
-177 -245 0
-173 -252 0
-176 -245 0
-180 -252 0
-180 -274 0
-175 -276 0
-175 -272 0
-180 -273 0
-179 -271 0
-179 -272 0
-173 -277 0
-174 -272 0
-186 -207 0
-187 -206 0
-188 -203 0
-182 -204 0
-189 -201 0
-182 -202 0
-182 -199 0
-187 -207 0
-187 -222 0
-181 -221 0
-184 -223 0
-186 -221 0
-184 -219 0
-183 -223 0
-188 -223 0
-183 -221 0
-187 -236 0
-185 -235 0
-185 -242 0
-182 -235 0
-187 -242 0
-184 -243 0
-184 -241 0
-189 -242 0
-189 -267 0
-189 -264 0
-187 -266 0
-189 -268 0
-187 -270 0
-183 -264 0
-183 -262 0
-185 -266 0
-197 -230 0
-197 -233 0
-190 -229 0
-192 -227 0
-197 -227 0
-193 -234 0
-191 -233 0
-198 -234 0
-191 -245 0
-190 -250 0
-192 -249 0
-196 -248 0
-194 -251 0
-195 -244 0
-197 -246 0
-193 -248 0
-195 -290 0
-190 -296 0
-197 -293 0
-195 -293 0
-192 -295 0
-193 -290 0
-190 -297 0
-197 -290 0
-199 -228 0
-199 -227 0
-203 -226 0
-204 -234 0
-200 -233 0
-203 -233 0
-201 -227 0
-202 -231 0
-207 -263 0
-201 -264 0
-199 -263 0
-201 -268 0
-204 -266 0
-207 -269 0
-205 -266 0
-200 -262 0
-205 -293 0
-199 -296 0
-199 -290 0
-202 -295 0
-202 -294 0
-206 -289 0
-203 -291 0
-207 -290 0
-212 -220 0
-213 -221 0
-215 -225 0
-208 -225 0
-210 -224 0
-210 -221 0
-213 -218 0
-212 -217 0
-215 -232 0
-210 -230 0
-214 -228 0
-210 -228 0
-209 -231 0
-210 -226 0
-216 -226 0
-209 -228 0
-210 -266 0
-213 -270 0
-209 -270 0
-208 -264 0
-212 -268 0
-214 -266 0
-209 -266 0
-211 -267 0
-215 -282 0
-210 -285 0
-214 -282 0
-212 -284 0
-216 -280 0
-216 -288 0
-216 -285 0
-210 -281 0
-213 -299 0
-211 -300 0
-211 -306 0
-214 -301 0
-214 -304 0
-215 -306 0
-213 -301 0
-216 -298 0
-224 -231 0
-218 -233 0
-220 -229 0
-223 -231 0
-221 -229 0
-223 -234 0
-218 -232 0
-218 -234 0
-218 -238 0
-217 -239 0
-225 -235 0
-217 -238 0
-218 -240 0
-223 -238 0
-221 -242 0
-224 -237 0
-218 -271 0
-221 -273 0
-222 -277 0
-219 -272 0
-221 -275 0
-218 -275 0
-225 -273 0
-224 -276 0
-224 -282 0
-221 -284 0
-218 -281 0
-223 -280 0
-220 -282 0
-225 -280 0
-221 -285 0
-225 -283 0
-224 -295 0
-225 -296 0
-223 -293 0
-221 -290 0
-220 -289 0
-221 -297 0
-225 -289 0
-220 -297 0
-228 -237 0
-227 -239 0
-232 -242 0
-233 -238 0
-230 -239 0
-230 -236 0
-227 -242 0
-231 -239 0
-226 -282 0
-227 -284 0
-226 -286 0
-229 -286 0
-234 -280 0
-233 -287 0
-229 -285 0
-226 -283 0
-232 -292 0
-233 -295 0
-227 -291 0
-231 -296 0
-234 -294 0
-233 -290 0
-226 -295 0
-230 -290 0
-238 -254 0
-240 -257 0
-242 -253 0
-239 -257 0
-239 -261 0
-238 -253 0
-236 -259 0
-236 -253 0
-243 -290 0
-241 -292 0
-242 -295 0
-242 -292 0
-236 -289 0
-240 -295 0
-235 -291 0
-239 -291 0
-236 -310 0
-240 -311 0
-243 -310 0
-239 -312 0
-236 -314 0
-239 -311 0
-243 -308 0
-237 -311 0
-244 -277 0
-251 -279 0
-245 -279 0
-251 -278 0
-249 -276 0
-244 -274 0
-247 -278 0
-246 -274 0
-245 -281 0
-244 -282 0
-250 -287 0
-251 -282 0
-244 -280 0
-252 -285 0
-252 -284 0
-245 -287 0
-260 -293 0
-253 -296 0
-258 -289 0
-255 -291 0
-255 -292 0
-259 -293 0
-257 -294 0
-257 -297 0
-268 -283 0
-263 -280 0
-270 -285 0
-267 -285 0
-265 -284 0
-263 -286 0
-267 -280 0
-269 -282 0
-265 -297 0
-266 -295 0
-264 -297 0
-263 -292 0
-265 -289 0
-267 -297 0
-267 -290 0
-269 -294 0
-266 -310 0
-263 -314 0
-263 -309 0
-265 -315 0
-265 -308 0
-267 -311 0
-268 -314 0
-264 -312 0
-275 -311 0
-279 -307 0
-272 -310 0
-271 -312 0
-274 -307 0
-275 -315 0
-279 -309 0
-279 -311 0
-280 -297 0
-287 -291 0
-281 -294 0
-285 -292 0
-288 -291 0
-283 -289 0
-288 -290 0
-281 -296 0
-280 -306 0
-281 -302 0
-288 -298 0
-287 -301 0
-284 -304 0
-280 -305 0
-287 -305 0
-284 -299 0
